fix global_stats all ave/time ${analysis_related_dump_frequency} 1 ${analysis_related_dump_frequency} &
    c_center_symmetric_average c_center_symmetric_max c_center_symmetric_sumsq &
    c_vonmises_average c_vonmises_max &
    v_defect_percent v_transferred_to_upper_group v_transferred_to_lower_group &
    v_fx_upper_plane v_total_struct_atoms &
    v_center_symmetric_sum v_center_symmetric_std file ${output_directory}/stats.out

dump analysis_dump all custom ${analysis_related_dump_frequency} ${output_directory}/analysis.lammpstrj id type x y z &
    c_center_symmetric c_cna v_atoms_stress v_velocity_squared_atom c_cluster &
    c_ke_hotspots v_is_hotspot c_coord c_ptm[1] c_ptm[2] c_ptm[3] c_ptm[4] c_ptm[5] c_ptm[6] &
    c_ke_mobile c_pe_mobile v_total_energy &
    c_disp_nanoparticle[*]

dump main_dump all custom ${dump_frequency} ${output_directory}/trajectory.lammpstrj id type x y z fx fy fz

# dump energy_dump mobile_group custom ${analysis_related_dump_frequency} ${output_directory}/energy.dump id type x y z c_ke_mobile c_pe_mobile v_total_energy

# Output thermo information
thermo_style custom step time atoms &
    temp c_temp_mobile press etotal pe ke &
    v_fx_nanoparticle_upper_plane v_fz_nanoparticle_upper_plane &
    c_center_symmetric_average

thermo {{ simulation.thermo_frequency }}

restart {{ simulation.restart_frequency }} ${output_directory}/restart.*.binary